************************************************************************
file with basedata            : J12029_.BAS
initial value random generator: 28534
************************************************************************
projects                      :  1
jobs (incl. supersource/sink ):  122
horizon                       :  680
RESOURCES
  - renewable                 :  4   R
  - nonrenewable              :  0   N
  - doubly constrained        :  0   D
************************************************************************
PROJECT INFORMATION:
pronr.  #jobs rel.date duedate tardcost  MPM-Time
    1    120      0      104       53      104
************************************************************************
PRECEDENCE RELATIONS:
jobnr.    #modes  #successors   successors
   1        1          3           2   3   4
   2        1          3           8   9  19
   3        1          3           6   7  10
   4        1          3           5  11  14
   5        1          3          17  24  89
   6        1          3          31  39  50
   7        1          2          53  70
   8        1          3          12  41  42
   9        1          2          21  78
  10        1          3          16  20  34
  11        1          2          13  25
  12        1          3          15  23  30
  13        1          3          26  28  58
  14        1          3          39  85 102
  15        1          3          22  37  48
  16        1          1          19
  17        1          3          18  66  73
  18        1          3          32  55  60
  19        1          3          27  29  69
  20        1          3          43  45  86
  21        1          2          46  55
  22        1          2          38  51
  23        1          3          83  89 119
  24        1          1          27
  25        1          1          35
  26        1          3          40  62  74
  27        1          1          36
  28        1          1          42
  29        1          2          65  80
  30        1          2          33  45
  31        1          1          44
  32        1          2          65 100
  33        1          2          49  78
  34        1          2          39  81
  35        1          1          56
  36        1          3          47  51  71
  37        1          3          38  64  66
  38        1          2          54  93
  39        1          2          74  75
  40        1          1          61
  41        1          1          60
  42        1          3          52  57  95
  43        1          2          73 103
  44        1          1          63
  45        1          1         107
  46        1          2          56  69
  47        1          2          87 115
  48        1          2          58 102
  49        1          3          72  76  99
  50        1          2          98 105
  51        1          2          59  84
  52        1          3          68  77  96
  53        1          1          72
  54        1          2          92 106
  55        1          2          59 115
  56        1          1          84
  57        1          1         117
  58        1          1         113
  59        1          1          86
  60        1          3          88  97 105
  61        1          3          79  83  85
  62        1          1          87
  63        1          1          97
  64        1          3          65  69  83
  65        1          1         106
  66        1          2          67  99
  67        1          1         114
  68        1          1          94
  69        1          1         100
  70        1          1         109
  71        1          2          82  96
  72        1          2          89  92
  73        1          1          79
  74        1          3          80 101 120
  75        1          2          87  91
  76        1          1         116
  77        1          2          80 110
  78        1          2         115 117
  79        1          3          94 101 102
  80        1          1         114
  81        1          1          85
  82        1          2          84  98
  83        1          2          93  95
  84        1          1          88
  85        1          1          86
  86        1          2          90  95
  87        1          3          90  97 105
  88        1          3          93  94 113
  89        1          1         118
  90        1          1         103
  91        1          2          92 107
  92        1          1         103
  93        1          1         110
  94        1          1          99
  95        1          1         109
  96        1          1         112
  97        1          2         112 121
  98        1          3         101 109 111
  99        1          1         100
 100        1          2         104 108
 101        1          1         104
 102        1          1         104
 103        1          2         108 118
 104        1          1         106
 105        1          3         107 108 113
 106        1          1         112
 107        1          1         111
 108        1          1         110
 109        1          1         118
 110        1          2         111 116
 111        1          1         117
 112        1          1         119
 113        1          2         114 121
 114        1          1         119
 115        1          1         116
 116        1          1         120
 117        1          1         121
 118        1          1         120
 119        1          1         122
 120        1          1         122
 121        1          1         122
 122        1          0        
************************************************************************
REQUESTS/DURATIONS:
jobnr. mode duration  R 1  R 2  R 3  R 4
------------------------------------------------------------------------
  1      1     0       0    0    0    0
  2      1     8      10    8    0    0
  3      1     6       0    0    0    4
  4      1     1       3   10    0    5
  5      1     5       0    0    4    0
  6      1     5       9    0    5    8
  7      1     7       1    3    0   10
  8      1     3       0    6    0    4
  9      1     4       6    3    0    4
 10      1     1       4    5    0    0
 11      1     4       3    0    9    8
 12      1    10       9    0   10    0
 13      1     8       7    0    8    0
 14      1     6       0    4    0    0
 15      1     4       0    0    6    3
 16      1     9       0    5    0    0
 17      1     5       3    0    0    0
 18      1     6       4    0    0    0
 19      1     1       4    0    0    0
 20      1     3       5    9    7    0
 21      1     1       0    4    0    0
 22      1     3       4    7    1    0
 23      1     6       8    0    0    9
 24      1     6       0    6    2    0
 25      1     2       3    0    0    9
 26      1     2      10    0    0    2
 27      1     8       0    8    0    0
 28      1     2       0    0    0    5
 29      1     1       6    8    7    0
 30      1     3       0    7    0    0
 31      1     2       0    5    0    3
 32      1    10       0    7    0    0
 33      1     4       7    1    3    0
 34      1     2      10    1    0    0
 35      1     9       6    0    0    0
 36      1     5       7    3    4    0
 37      1     1       0    1    8    0
 38      1     1       0    0   10    0
 39      1     2       8    4    7   10
 40      1     4       0    0    7    4
 41      1     4       0    0    6    8
 42      1    10       0    0    0    7
 43      1     6       0    3    0    0
 44      1     6       0    7    0    9
 45      1     8       2    3    0    0
 46      1     3       0    0    9    9
 47      1     7       5    9    0    0
 48      1     9       7    3    1    0
 49      1     6       0    5    2    0
 50      1     5       2    0    0    0
 51      1     6       2    4    0    8
 52      1     2       0    0    0    6
 53      1     7       1    0    0    8
 54      1     8       9    7    0    4
 55      1     4       0    0    8    0
 56      1     8       1   10    2    0
 57      1     7       0    0    0    7
 58      1     7       9    5    0   10
 59      1     1       8    0   10    4
 60      1     5       0    8    0    2
 61      1    10      10    0    0    0
 62      1     7       0    2    0    0
 63      1     7       1    0   10    0
 64      1     9       8    0    0    0
 65      1     6       3    0    5    0
 66      1     4       3    4    7    0
 67      1     8       4   10    0    0
 68      1     7       2    4    3    5
 69      1     7       2    0    0   10
 70      1     4       0    1    0    9
 71      1     8       2    0    1    3
 72      1     9       3    0    0    2
 73      1     3       0    9    8    9
 74      1     9       7    2    7    9
 75      1     9       1    1    0    1
 76      1     6       0    0    0    8
 77      1     9       4   10    0    0
 78      1     9       0    5    4    5
 79      1     6       7    8    0    9
 80      1     6       0    8    0    0
 81      1     4       0    5    0    7
 82      1     5       0    0    9    0
 83      1     9       5    0    0    7
 84      1     1       0    9    0    0
 85      1     2       8    6    2   10
 86      1     6       0    8    0    5
 87      1     3       4    0    8    0
 88      1     8       0    2    1    8
 89      1    10       5    8    0    0
 90      1     4       0    0    1    0
 91      1     9       0    6    3    0
 92      1     2       7    0    9    5
 93      1     8       8    0    0    0
 94      1    10       0    1    6    0
 95      1     3       1   10   10    0
 96      1     7       9    7    4    8
 97      1     6       7    6    0    0
 98      1    10       7    0    0    4
 99      1     8      10   10    0    1
100      1     3       9    3    0    0
101      1     4       1    9    1    0
102      1     9       0    0    0    4
103      1     9       5    0    0    6
104      1    10       0    9    0    0
105      1     7       0    3    0    7
106      1     2       0    0    7    4
107      1     3       0    3    3    0
108      1     8       0    5    0    0
109      1    10       0    0    4    0
110      1     3       0    0    6    0
111      1     6       0    0    7    0
112      1     6       0    0    5    0
113      1     3       1    0    8    0
114      1     8       0    7    0    9
115      1     8       1    7    0    8
116      1     5       0    0    7    0
117      1     9       0    2    0    0
118      1     3       5    0    6    8
119      1     2       0    0    0    9
120      1    10       7    0    9    4
121      1     5       0    6    0    5
122      1     0       0    0    0    0
************************************************************************
RESOURCEAVAILABILITIES:
  R 1  R 2  R 3  R 4
   30   38   26   31
************************************************************************
